sets/C/cp-n13-kk.vrp
NAME : (null)
COMMENT : (null)
TYPE : CVRP
DIMENSION : 13
EDGE_WEIGHT_TYPE : EUC_2D
CAPACITY : 93
NODE_COORD_SECTION
 1   7   0
 2   9   8
 3   1   6
 4   5   7
 5   8   1
 6  10  10
 7   1   9
 8   2   5
 9   5   4
10   3   1
11   8   7
12   1  10
13  11   0
DEMAND_SECTION
 1   0
 2  13
 3   4
 4   8
 5   7
 6   7
 7   9
 8   7
 9  17
10   4
11   3
12  13
13  20
DEPOT_SECTION
 1
-1
EOF