sets/C/cp-n13-kk.opt
Route #1: 9 7 2 6 11 5 1 10 3 8
Route #2: 4 12
cost 43
